N=30;
start=[|
5, 23, 0, 9, 0, 0, 0, 0, 29, 0, 0, 0, 25, 6, 7, 21, 0, 0, 16, 0, 18, 1, 0, 19, 22, 28, 13, 20, 30, 17|
10, 0, 21, 0, 3, 0, 30, 8, 22, 0, 0, 28, 2, 26, 0, 0, 0, 0, 0, 11, 25, 5, 0, 0, 18, 24, 27, 0, 19, 7|
27, 12, 2, 0, 4, 9, 3, 0, 0, 0, 7, 13, 18, 17, 0, 0, 29, 26, 5, 0, 0, 0, 22, 24, 0, 21, 15, 0, 0, 8|
19, 10, 0, 6, 0, 30, 0, 11, 15, 0, 26, 0, 0, 13, 12, 4, 0, 21, 2, 23, 0, 0, 20, 27, 24, 0, 0, 5, 1, 0|
30, 2, 0, 1, 0, 0, 24, 0, 0, 10, 13, 25, 0, 5, 0, 0, 6, 7, 15, 21, 17, 0, 0, 0, 11, 29, 0, 9, 14, 0|
0, 0, 28, 0, 0, 0, 9, 0, 8, 17, 15, 12, 1, 29, 26, 30, 0, 0, 10, 13, 22, 23, 0, 20, 0, 3, 0, 0, 18, 5|
0, 24, 19, 21, 23, 28, 29, 2, 12, 0, 0, 4, 0, 0, 1, 0, 0, 17, 0, 14, 26, 30, 3, 0, 0, 8, 0, 0, 7, 0|
24, 0, 0, 0, 0, 16, 27, 0, 25, 0, 29, 0, 11, 9, 4, 23, 17, 0, 0, 12, 5, 21, 15, 0, 10, 26, 0, 13, 0, 2|
1, 11, 0, 24, 26, 14, 6, 7, 28, 8, 23, 0, 0, 30, 0, 0, 0, 2, 3, 29, 0, 0, 0, 4, 0, 16, 0, 0, 12, 0|
9, 0, 13, 0, 11, 12, 0, 17, 27, 25, 10, 0, 0, 0, 0, 15, 14, 8, 23, 22, 3, 7, 16, 0, 2, 0, 0, 0, 0, 19|
13, 1, 0, 0, 0, 29, 18, 0, 0, 0, 0, 9, 4, 24, 0, 2, 7, 15, 26, 0, 27, 19, 0, 22, 3, 0, 21, 11, 0, 6|
0, 0, 26, 0, 1, 6, 0, 0, 0, 27, 25, 24, 22, 0, 0, 7, 28, 5, 21, 0, 2, 0, 13, 16, 19, 11, 0, 18, 0, 0|
0, 25, 0, 0, 9, 0, 16, 0, 0, 24, 6, 0, 5, 0, 0, 0, 15, 19, 0, 0, 0, 12, 27, 14, 8, 13, 2, 3, 29, 23|
21, 0, 16, 2, 18, 0, 0, 26, 0, 0, 28, 14, 0, 0, 24, 29, 22, 0, 13, 7, 23, 0, 6, 9, 4, 0, 10, 1, 0, 0|
0, 16, 25, 0, 30, 7, 0, 20, 0, 26, 0, 0, 0, 0, 5, 24, 19, 3, 4, 0, 9, 2, 0, 15, 29, 0, 23, 0, 0, 18|
18, 27, 0, 10, 21, 3, 0, 0, 0, 28, 0, 2, 0, 0, 16, 20, 11, 0, 0, 0, 0, 17, 7, 30, 1, 0, 5, 8, 0, 22|
0, 0, 0, 19, 22, 24, 25, 18, 0, 0, 8, 3, 0, 10, 13, 5, 21, 0, 0, 15, 20, 0, 4, 2, 0, 12, 30, 0, 27, 0|
0, 0, 7, 30, 0, 0, 0, 14, 6, 0, 21, 0, 0, 16, 17, 0, 26, 0, 22, 9, 29, 13, 2, 0, 15, 4, 11, 0, 5, 1|
0, 5, 27, 11, 0, 0, 26, 19, 20, 21, 0, 0, 15, 0, 25, 10, 16, 12, 0, 18, 0, 0, 8, 0, 0, 0, 14, 30, 9, 4|
6, 0, 0, 18, 27, 0, 0, 5, 21, 0, 0, 20, 14, 0, 2, 0, 0, 10, 0, 26, 12, 29, 17, 13, 9, 0, 0, 19, 24, 25|
4, 20, 29, 3, 0, 23, 0, 0, 1, 11, 0, 26, 19, 15, 0, 0, 0, 0, 9, 0, 0, 24, 0, 28, 0, 6, 8, 10, 0, 12|
20, 8, 10, 12, 6, 0, 7, 23, 0, 0, 4, 0, 27, 2, 19, 0, 0, 0, 0, 0, 30, 16, 0, 1, 13, 0, 0, 26, 25, 0|
3, 0, 0, 13, 14, 20, 28, 6, 19, 0, 1, 10, 0, 12, 30, 27, 0, 22, 8, 0, 0, 0, 0, 21, 0, 23, 25, 24, 0, 0|
0, 15, 5, 0, 19, 4, 0, 25, 10, 3, 24, 0, 0, 0, 6, 9, 0, 1, 0, 0, 13, 20, 21, 0, 0, 0, 18, 27, 28, 0|
0, 4, 18, 23, 0, 0, 0, 0, 0, 14, 0, 6, 9, 0, 15, 12, 13, 11, 0, 0, 0, 28, 25, 0, 17, 1, 7, 0, 20, 26|
22, 0, 0, 8, 0, 5, 0, 9, 0, 29, 2, 0, 13, 28, 20, 0, 12, 0, 0, 24, 14, 4, 26, 7, 0, 0, 17, 16, 23, 0|
0, 17, 15, 29, 8, 18, 23, 0, 16, 13, 0, 22, 0, 0, 0, 1, 27, 20, 24, 10, 6, 0, 0, 0, 0, 0, 19, 0, 26, 28|
15, 0, 0, 0, 13, 0, 11, 30, 7, 18, 0, 21, 29, 22, 0, 3, 0, 24, 0, 25, 0, 9, 0, 0, 0, 10, 1, 28, 6, 0|
0, 28, 1, 0, 0, 27, 17, 12, 26, 9, 5, 8, 21, 20, 22, 0, 30, 23, 6, 0, 0, 0, 0, 0, 0, 18, 0, 0, 0, 14|
7, 0, 11, 0, 20, 0, 1, 3, 2, 30, 0, 17, 8, 14, 0, 16, 0, 0, 25, 27, 0, 0, 23, 26, 28, 0, 0, 0, 0, 29|];
